52052
[0, 3, 2, 1, 5, 4, 6, 7, 8, 9, 10, 11, 12, 13, 87, 89, 90, 88, 142, 141, 140, 160, 139, 138, 96, 95, 93, 85, 84, 15, 14, 16, 18, 19, 17, 20, 22, 21, 23, 24, 25, 26, 27, 28, 29, 30, 31, 34, 35, 37, 36, 41, 39, 40, 42, 38, 44, 45, 43, 46, 47, 48, 49, 50, 51, 52, 53, 55, 54, 56, 57, 59, 58, 60, 109, 108, 107, 105, 106, 61, 64, 104, 63, 62, 65, 32, 33, 67, 66, 69, 68, 70, 73, 72, 71, 74, 79, 76, 77, 75, 81, 78, 80, 83, 82, 86, 94, 97, 98, 99, 100, 101, 135, 134, 132, 102, 131, 128, 103, 129, 130, 133, 136, 137, 161, 162, 163, 164, 165, 200, 167, 166, 196, 197, 235, 237, 236, 240, 239, 238, 242, 241, 195, 193, 194, 169, 168, 190, 191, 192, 246, 244, 250, 249, 187, 188, 189, 172, 171, 173, 127, 110, 111, 112, 122, 126, 176, 170, 178, 186, 177, 175, 174, 125, 123, 124, 120, 121, 117, 114, 115, 113, 116, 118, 119, 179, 180, 181, 182, 183, 184, 185, 252, 251, 254, 260, 259, 253, 255, 256, 257, 258, 261, 263, 262, 265, 264, 266, 267, 247, 248, 243, 245, 269, 268, 270, 271, 272, 273, 234, 233, 198, 199, 201, 227, 202, 228, 230, 229, 232, 231, 276, 275, 274, 278, 277, 280, 281, 282, 279, 283, 284, 285, 218, 223, 222, 225, 224, 226, 298, 205, 204, 203, 206, 207, 209, 210, 159, 158, 157, 212, 211, 208, 219, 220, 221, 217, 215, 216, 286, 287, 288, 290, 289, 291, 292, 294, 293, 296, 295, 297, 214, 213, 156, 155, 154, 153, 152, 151, 150, 149, 148, 146, 147, 144, 145, 143, 92, 91]
